Route 1: 0 36 77 80 16 37 14 54 95 61 76 35 65 0
Route 2: 0 44 66 46 90 97 63 92 38 8 12 45 22 0
Route 3: 0 68 83 55 86 91 48 53 23 0
Route 4: 0 2 32 57 28 3 4 84 41 99 27 1 88 0
Route 5: 0 59 20 56 81 87 9 72 6 51 58 74 0
Route 6: 0 78 17 34 96 11 70 94 43 60 0
Route 7: 0 82 98 21 30 42 71 62 100 0
Route 8: 0 26 50 31 10 85 47 64 7 13 67 25 15 0
Route 9: 0 33 73 18 29 69 24 49 93 5 89 0
Route 10: 0 19 40 79 75 39 52 0
